$BOND
1 2 120 240 15
1 3 120 240 15
1 4 120 240 15
1 5 120 240 15
2 6 120 240 15
6 7 120 240 15
3 10 120 240 15
10 11 120 240 15
4 14 120 240 15
14 15 120 240 15
5 18 120 240 15
18 19 120 240 15
$END
$ALGO
ALGO=CONF CONNECT=WRITE library=nlopt optloc=nlopt_ln_sbplx 
MAXDISTDIff=0.1 EDIFF=0.1 DIST=1.4 NONHD=FALSE RMSD=0.05 MAXCLUST=300000 population=0
HCHRG=0.25 OCHRG=-0.5 KEL=1.0 KVW=1.0 KGD=0 TESTSIZE=1e-3
STRATEGY=0 CLUSTERPROPERTY=EIXX SORT=e
MK=0 ITER1=5000 KMEANS=-1  MAXCONF=150000000 COM=0
ITER2=30000 KMEANS1=-1 MAXCONFPRINT=55000000
$END
$MOLECULE
 Ti    -0.304663     0.213869    -0.655155
  O    -0.707028    -1.045102     0.587310
  O    -1.772922     0.583108    -1.677130
  O     0.201852     1.683976     0.283541
  O     1.046929    -0.361654    -1.724541
  C    -0.707718    -1.070670     2.003101
  C     0.702996    -1.200109     2.577745
  H    -1.176566    -0.151089     2.388370
  H     1.284250    -0.353280     2.179510
  C    -3.162885     0.593849    -1.430338
  C    -3.552620     1.484329    -0.248233
  H    -3.669134     0.959068    -2.339805
  H    -3.013233     1.106793     0.636523
  C     1.263900     2.605690     0.381689
  C     1.040509     3.840500    -0.493198
  H     2.212658     2.122715     0.088738
  H     0.111236     4.320744    -0.152058
  C     1.974238    -1.426965    -1.723644
  C     3.244300    -1.081510    -0.945007
  H     2.237119    -1.657803    -2.769444
  H     2.928922    -0.782124     0.067478
  H    -3.511911    -0.435620    -1.246262
  H     1.358394     2.911987     1.435409
  H    -1.322013    -1.925141     2.331399
  H     1.506935    -2.328118    -1.293735
  C     0.886651     3.459816    -1.964538
  H     1.784107     2.941671    -2.325687
  H     0.027141     2.801236    -2.128942
  H     0.741216     4.351441    -2.583820
  C     2.203269     4.814219    -0.292579
  H     2.316694     5.098669     0.759567
  H     3.146773     4.363182    -0.624925
  H     2.050379     5.728633    -0.874233
  C    -5.054650     1.365064     0.011707
  H    -5.625290     1.712848    -0.858427
  H    -5.348457     0.329606     0.216476
  H    -5.353181     1.976994     0.869000
  C    -3.140836     2.935300    -0.489620
  H    -3.385911     3.561841     0.374916
  H    -2.065321     3.012830    -0.671501
  H    -3.667756     3.341541    -1.362372
  C     1.362632    -2.506417     2.140484
  H     2.404428    -2.554206     2.475872
  H     0.830497    -3.365896     2.567284
  H     1.348657    -2.609867     1.051658
  C     0.650377    -1.085212     4.101433
  H     0.043276    -1.891984     4.530763
  H     1.653409    -1.160854     4.533371
  H     0.216731    -0.130362     4.418165
  C     4.136220    -2.318006    -0.833878
  H     3.623990    -3.139430    -0.320659
  H     4.432905    -2.672762    -1.828779
  H     5.051463    -2.090878    -0.277692
  C     3.985975     0.084133    -1.596960
  H     4.838482     0.403015    -0.987615
  H     4.368019    -0.210423    -2.582535
  H     3.322288     0.942074    -1.738704
$END
$CHARGE
   1.11
  -0.43
   -0.5
  -0.48
  -0.49
  -0.16
   0.52
   0.08
  -0.02
    0.0
   0.45
   0.08
  -0.01
  -0.07
   0.52
   0.05
  -0.03
    0.0
   0.56
   0.07
  -0.06
   0.04
   0.07
   0.11
   0.03
  -0.54
   0.13
   0.13
   0.12
  -0.67
   0.14
   0.16
   0.17
  -0.68
   0.16
   0.15
   0.17
  -0.54
   0.12
   0.13
   0.14
  -0.51
   0.11
   0.13
   0.12
  -0.69
   0.16
   0.17
   0.15
  -0.69
   0.15
   0.15
   0.17
  -0.57
   0.12
   0.13
   0.14
$END
