$BOND
1 2 120 240 15
1 3 120 240 15
1 4 120 240 15
1 5 120 240 15
2 6 120 240 15
3 16 120 240 15
4 26 120 240 15
5 36 120 240 15
$END
$ALGO
ALGO=CONF CONNECT=READ library=nlopt optloc=nlopt_ln_sbplx 
MAXDISTDIff=0.1 EDIFF=0.1 DIST=1.4 NONHD=FALSE RMSD=0.05 MAXCLUST=300000 population=0
HCHRG=0.25 OCHRG=-0.5 KEL=1.0 KVW=1.0 KGD=0 TESTSIZE=1e-3
STRATEGY=0 CLUSTERPROPERTY=EIXX SORT=e
MK=0 ITER1=5000 KMEANS=-1  MAXCONF=150000000 COM=0
ITER2=15000 KMEANS1=-1 MAXCONFPRINT=55000000
$END
$MOLECULE
 Ti    -0.140179    -0.095094    -0.508204
  O    -0.666624    -1.020943     0.961906
  O    -1.512247     0.028765    -1.706259
  O     0.317307     1.555082     0.096504
  O     1.286610    -0.833801    -1.337949
  C    -0.900198    -0.751091     2.338672
  C     0.312022    -1.185045     3.152046
  C    -2.171194    -1.470744     2.771270
  H    -1.039021     0.337253     2.459904
  H     1.204021    -0.641237     2.826228
  H     0.153796    -0.984533     4.217220
  H     0.490342    -2.257821     3.020481
  H    -3.023946    -1.144160     2.168390
  H    -2.052940    -2.552107     2.643521
  H    -2.391308    -1.264254     3.824118
  C    -2.909594     0.259871    -1.626088
  C    -3.226959     1.263787    -0.521950
  C    -3.632519    -1.066168    -1.420129
  H    -3.215643     0.690288    -2.594314
  H    -2.652807     2.184792    -0.662271
  H    -4.294106     1.511127    -0.514593
  H    -2.968065     0.840670     0.457359
  H    -3.386992    -1.763447    -2.226420
  H    -3.320047    -1.513614    -0.469513
  H    -4.718321    -0.920395    -1.400652
  C     1.452598     2.408209     0.103369
  C     2.319878     2.086253     1.314293
  C     0.975789     3.854746     0.101584
  H     2.036079     2.218992    -0.813758
  H     2.651249     1.042880     1.278667
  H     3.206234     2.729366     1.342684
  H     1.747703     2.237063     2.236580
  H     0.340630     4.044600    -0.768396
  H     0.393336     4.059127     1.006433
  H     1.827288     4.542920     0.069812
  C     2.382402    -1.728635    -1.282398
  C     2.463790    -2.406665     0.079087
  C     3.656932    -0.964320    -1.621084
  H     2.212450    -2.497810    -2.054354
  H     1.520498    -2.905388     0.321018
  H     3.268480    -3.149677     0.090286
  H     2.668334    -1.664551     0.860003
  H     3.562744    -0.474099    -2.594166
  H     3.845606    -0.196089    -0.862241
  H     4.516877    -1.642121    -1.651200
$END
$CHARGE
   1.25
  -0.59
  -0.68
  -0.61
  -0.62
   0.73
  -0.64
   -0.7
  -0.06
   0.14
   0.15
   0.17
   0.16
   0.18
   0.16
   0.74
  -0.74
  -0.65
  -0.03
   0.18
   0.17
   0.19
   0.16
   0.17
   0.14
   0.72
  -0.66
  -0.64
  -0.04
   0.15
   0.15
   0.17
   0.15
   0.17
   0.15
   0.69
  -0.66
  -0.62
  -0.03
   0.15
   0.15
   0.17
   0.16
   0.15
   0.15
$END
