$BOND
1 2 120 240 15
1 3 120 240 15
1 4 120 240 15
1 5 120 240 15
2 6 120 240 15
6 7 120 240 15
3 15 120 240 15
15 17 120 240 15
4 24 120 240 15
24 26 120 240 15
5 33 120 240 15
33 34 120 240 15
$END
$ALGO
ALGO=CONF CONNECT=READ library=nlopt optloc=nlopt_ln_sbplx 
MAXDISTDIff=0.1 EDIFF=0.1 DIST=1.4 NONHD=FALSE RMSD=0.05 MAXCLUST=300000 population=0
HCHRG=0.25 OCHRG=-0.5 KEL=1.0 KVW=1.0 KGD=0 TESTSIZE=1e-3
STRATEGY=0 CLUSTERPROPERTY=EIXX SORT=e
MK=0 ITER1=5000 KMEANS=-1  MAXCONF=150000000 COM=0
ITER2=30000 KMEANS1=-1 MAXCONFPRINT=55000000
$END
$MOLECULE
 Ti    -0.121788    -0.209465    -0.594681
  O    -0.673088    -1.066926     0.912363
  O    -1.506924    -0.025925    -1.769121
  O     0.419325     1.414311    -0.013976
  O     1.226406    -1.071283    -1.438869
  C    -0.869769    -0.704207     2.272389
  C     0.324375    -1.189553     3.095134
  C    -2.197767    -1.281101     2.745226
  H    -0.908751     0.399092     2.339148
  H     1.231861    -0.797552     2.619585
  H     0.376104    -2.284248     3.021568
  H    -3.010701    -0.944911     2.094733
  H    -2.164749    -2.375872     2.717198
  H    -2.424583    -0.960560     3.766761
  C    -2.881987     0.305322    -1.664407
  C    -3.090224     1.396658    -0.618964
  C    -3.679010    -0.968125    -1.374778
  H    -3.192585     0.697337    -2.648868
  H    -2.426930     2.243246    -0.821896
  H    -4.123055     1.759098    -0.620683
  H    -2.862141     1.011621     0.384040
  H    -3.414662    -1.703332    -2.144633
  H    -3.329666    -1.376654    -0.416488
  C     1.465962     2.341286     0.197896
  C     2.275068     1.925966     1.422318
  C     0.868465     3.748675     0.307608
  H     2.128873     2.321542    -0.683916
  H     2.743063     0.950818     1.251199
  H     3.064281     2.656124     1.632996
  H     1.629552     1.841975     2.302474
  H     0.358432     3.965230    -0.639297
  H     1.694742     4.467116     0.394586
  C     2.396548    -1.859199    -1.335132
  C     2.526328    -2.437775     0.074240
  C     3.594338    -1.011523    -1.746954
  H     2.289370    -2.696335    -2.047170
  H     1.568012    -2.902525     0.337304
  H     2.671108    -1.603736     0.775991
  H     3.418750    -0.565373    -2.729813
  H     3.747930    -0.203363    -1.021564
  H     4.507107    -1.613423    -1.799390
  C     0.281788    -0.748695     4.556688
  H    -0.537708    -1.224201     5.104485
  H     1.213304    -1.009473     5.068269
  H     0.152203     0.337465     4.636246
  C     3.658233    -3.452205     0.221279
  H     3.640227    -3.912255     1.213969
  H     3.564810    -4.255776    -0.518468
  H     4.641549    -2.989366     0.091141
  C    -5.191645    -0.757983    -1.349868
  H    -5.537376    -0.263483    -2.265572
  H    -5.716283    -1.715261    -1.272614
  H    -5.504590    -0.143424    -0.499627
  C    -0.110593     3.921865     1.466706
  H    -0.902728     3.168126     1.414961
  H     0.385796     3.828378     2.438025
  H    -0.580911     4.909426     1.431638
$END
$CHARGE
   1.16
  -0.65
  -0.67
  -0.48
  -0.57
    0.6
   0.04
  -0.64
  -0.05
   -0.0
   0.04
   0.16
   0.17
   0.14
   0.58
  -0.69
  -0.03
  -0.01
   0.19
   0.15
   0.18
   0.03
   0.06
   0.35
  -0.55
  -0.02
   -0.0
   0.14
   0.14
   0.17
   0.02
   0.03
    0.5
  -0.02
  -0.56
  -0.01
   0.04
   0.05
   0.15
   0.14
   0.13
  -0.48
   0.13
   0.13
    0.1
  -0.47
   0.13
   0.12
   0.12
  -0.41
   0.09
   0.11
    0.1
  -0.22
   0.06
   0.06
   0.06
$END
