$BOND
1 7 120 240 15
1 13 120 240 15
1 19 120 240 15
1 25 120 240 15
7 2 120 240 15
13 8 120 240 15
19 14 120 240 15
25 20 120 240 15
$END
$ALGO
ALGO=CONF CONNECT=READ library=nlopt optloc=nlopt_ln_sbplx 
MAXDISTDIff=0.1 EDIFF=0.1 DIST=1.4 NONHD=FALSE RMSD=0.05 MAXCLUST=300000 population=0
HCHRG=0.25 OCHRG=-0.5 KEL=1.0 KVW=1.0 KGD=0 TESTSIZE=1e-3
STRATEGY=0 CLUSTERPROPERTY=EIXX SORT=e
MK=0 ITER1=5000 KMEANS=-1  MAXCONF=150000000 COM=0
ITER2=30000 KMEANS1=-1 MAXCONFPRINT=55000000
$END
$MOLECULE
 Ti     1.219629     0.805428     1.636183
  C     0.257620     3.754450     1.793178
  C     0.554757     3.836802     3.290713
  H     0.192436     4.783213     3.706223
  H     0.071722     3.009766     3.821068
  H     1.633973     3.769727     3.464849
  O     0.757659     2.519702     1.289201
  C    -0.309700    -0.451469     3.978961
  C    -0.140015    -1.925601     3.608808
  H    -0.894529    -2.540487     4.111352
  H    -0.244238    -2.054233     2.526339
  H     0.852163    -2.278904     3.906566
  O     0.688704     0.308696     3.301410
  C    -0.338807    -0.483383    -0.730207
  C    -1.153977    -1.767192    -0.567298
  H    -1.753964    -1.959760    -1.463026
  H    -0.487988    -2.620171    -0.402789
  H    -1.829205    -1.684003     0.290684
  O     0.442093    -0.322560     0.450761
  C     4.030096    -0.331213     1.440881
  C     5.269125     0.190277     2.170299
  H     6.082101    -0.542629     2.126313
  H     5.611873     1.122320     1.710653
  H     5.032165     0.389588     3.220047
  O     3.035018     0.686110     1.521711
  C    -1.257486     0.726742    -0.894952
  H    -1.874873     0.624349    -1.793701
  H    -1.918726     0.821872    -0.026980
  H    -0.664779     1.643327    -0.974787
  C     0.618606    -0.599519    -1.917369
  H     1.237475     0.300623    -1.992631
  H     1.276599    -1.465001    -1.791448
  H     0.061599    -0.720477    -2.852627
  C    -1.688714     0.053626     3.549650
  H    -1.811614    -0.069154     2.467607
  H    -2.485700    -0.502530     4.055031
  H    -1.796901     1.115087     3.796162
  C    -0.098831    -0.238472     5.478197
  H    -0.838439    -0.801530     6.057590
  H     0.901990    -0.571757     5.769246
  H    -0.193494     0.823265     5.727401
  C     4.332841    -0.579999    -0.037245
  H     3.429025    -0.925515    -0.549268
  H     4.667955     0.346418    -0.514129
  H     5.114351    -1.338716    -0.155181
  C     3.510674    -1.607794     2.107346
  H     3.253880    -1.407116     3.152704
  H     2.613236    -1.967687     1.590205
  H     4.266684    -2.399962     2.077042
  C     0.973759     4.874577     1.036899
  H     2.053629     4.807896     1.200509
  H     0.781189     4.788822    -0.037075
  H     0.625694     5.855431     1.378148
  C    -1.249133     3.806014     1.534953
  H    -1.455202     3.728115     0.462875
  H    -1.750536     2.976146     2.043794
  H    -1.672580     4.746944     1.902549
$END
$CHARGE
   1.34
   1.04
  -0.69
   0.15
   0.16
   0.16
   -0.7
   1.05
  -0.73
   0.15
   0.18
   0.17
  -0.71
   0.99
  -0.63
   0.14
   0.15
   0.14
  -0.71
   1.03
  -0.64
   0.13
   0.15
   0.15
  -0.72
  -0.68
   0.15
   0.15
   0.16
  -0.64
   0.15
   0.15
   0.14
  -0.71
   0.16
   0.16
   0.15
  -0.65
   0.14
   0.15
   0.15
   -0.7
   0.16
   0.16
   0.15
  -0.67
   0.15
   0.15
   0.14
  -0.65
   0.15
   0.15
   0.14
  -0.74
   0.18
   0.17
   0.16
$END
