$BOND
1 2 120 240 15
1 3 120 240 15
1 4 120 240 15
1 5 120 240 15
2 6 120 240 15
3 12 120 240 15
4 18 120 240 15
5 24 120 240 15
$END
$ALGO
ALGO=CONF CONNECT=READ library=nlopt optloc=nlopt_ln_sbplx 
MAXDISTDIff=0.1 EDIFF=0.1 DIST=1.4 NONHD=FALSE RMSD=0.05 MAXCLUST=300000 population=0
HCHRG=0.25 OCHRG=-0.5 KEL=1.0 KVW=1.0 KGD=0 TESTSIZE=1e-3
STRATEGY=1 CLUSTERPROPERTY=EIXX SORT=e
MK=0 ITER1=1000 KMEANS=-1  MAXCONF=150000000 COM=0
ITER2=10000 KMEANS1=33 MAXCONFPRINT=55000000
$END
$MOLECULE
 Ti    -0.044325    -0.046347    -0.557981
  O    -0.575331    -1.144595     0.784339
  O    -1.404856     0.540874    -1.613133
  O     0.740912     1.379021     0.241144
  O     1.162389    -0.884060    -1.631639
  C    -0.661786    -1.172124     2.195001
  C     0.717620    -1.191871     2.833310
  H    -1.229982    -0.296581     2.546522
  H     1.271111    -0.284803     2.569167
  H     0.634036    -1.242820     3.924722
  H     1.284955    -2.062677     2.488363
  C    -2.665944     1.156539    -1.467412
  C    -3.132868     1.183795    -0.019135
  H    -2.601352     2.182626    -1.863013
  H    -2.421774     1.740976     0.602592
  H    -4.111621     1.669621     0.060892
  H    -3.215865     0.166040     0.376837
  C     1.379654     2.608208    -0.022873
  C     0.503532     3.521028    -0.866344
  H     2.335648     2.416556    -0.535133
  H     0.276227     3.052148    -1.829578
  H    -0.441098     3.726930    -0.352253
  H     1.011613     4.473710    -1.052718
  C     2.227149    -1.782310    -1.383791
  C     3.362549    -1.104850    -0.631498
  H     2.585685    -2.155236    -2.354645
  H     3.736718    -0.246678    -1.198924
  H     3.018567    -0.746974     0.345457
  H     4.190053    -1.805150    -0.471662
  H    -3.392516     0.610916    -2.088523
  H     1.612283     3.087780     0.940052
  H    -1.229337    -2.069697     2.482704
  H     1.855279    -2.648562    -0.813461
$END
$CHARGE
   1.21
  -0.55
  -0.57
  -0.48
  -0.57
   0.33
  -0.39
  -0.02
    0.1
   0.09
   0.12
   0.31
  -0.41
   -0.0
   0.12
    0.1
   0.11
   0.22
  -0.34
   0.02
   0.12
   0.11
   0.08
   0.34
  -0.39
   0.01
   0.12
   0.08
   0.09
   0.03
   0.03
   0.01
  -0.01
$END
