$BOND
1 2 120 240 15
2 6 120 240 15
6 7 120 240 15
7 36 120 240 15
1 3 120 240 15
3 11 120 240 15
11 12 120 240 15
12 30 120 240 15
1 4 120 240 15
4 16 120 240 15
16 17 120 240 15
17 33 120 240 15
1 5 120 240 15
5 21 120 240 15
21 22 120 240 15
22 39 120 240 15
$END
$ALGO
ALGO=CONF CONNECT=WRITE library=nlopt optloc=nlopt_ln_sbplx 
MAXDISTDIff=0.1 EDIFF=0 DIST=1.4 NONHD=FALSE RMSD=0.05 MAXCLUST=300000 population=0
HCHRG=0.25 OCHRG=-0.5 KEL=1.0 KVW=1.0 KGD=0 TESTSIZE=1e-3
STRATEGY=1 CLUSTERPROPERTY=EIXX SORT=e
MK=500000 ITER1=1000 KMEANS=-1  MAXCONF=150000000 COM=0
ITER2=10000 KMEANS1=33 MAXCONFPRINT=55000000
$END
$MOLECULE
 Ti     0.172050     0.058134    -0.560470
  O    -0.330563    -1.222195     0.622303
  O    -1.270655     0.529455    -1.575444
  O     0.714325     1.480597     0.431986
  O     1.493592    -0.454784    -1.687218
  C    -0.656078    -1.260074     2.000139
  C     0.591915    -1.288165     2.870014
  H    -1.271564    -0.383164     2.262140
  H     1.210610    -0.415843     2.616604
  H     1.179400    -2.181356     2.621156
  C    -2.638862     0.713406    -1.274184
  C    -2.842318     1.797822    -0.221163
  H    -3.159950     0.999367    -2.202292
  H    -2.323008     2.702195    -0.563945
  H    -2.345982     1.486359     0.710670
  C     1.551526     2.615120     0.343674
  C     0.734458     3.876658     0.096062
  H     2.287891     2.472518    -0.463497
  H     0.155717     3.738537    -0.828370
  H     1.427743     4.711245    -0.083890
  C     2.520996    -1.406308    -1.867766
  C     3.856650    -0.879757    -1.352625
  H     2.600874    -1.621511    -2.943777
  H     4.080845     0.053364    -1.885586
  H     4.637280    -1.603178    -1.630900
  H    -3.068605    -0.242546    -0.935480
  H     2.109721     2.708150     1.289847
  H    -1.268691    -2.156224     2.183061
  H     2.252011    -2.348099    -1.364018
  C    -4.311858     2.116744     0.062893
  H    -4.802426     2.432607    -0.868357
  H    -4.354712     2.980772     0.738122
  C    -0.203455     4.219785     1.251825
  H    -0.825712     3.345260     1.475697
  H     0.394334     4.414780     2.153185
  C     0.263861    -1.279200     4.362169
  H    -0.375499    -2.139994     4.602548
  H    -0.324004    -0.382143     4.600620
  C     3.897694    -0.637974     0.158675
  H     3.075264     0.033531     0.441451
  H     4.823698    -0.102377     0.403740
  C     3.824533    -1.921500     0.984067
  H     2.884520    -2.457275     0.816058
  H     4.647553    -2.599412     0.729132
  H     3.885889    -1.704756     2.055641
  C     1.519367    -1.314321     5.231058
  H     1.271157    -1.303816     6.297154
  H     2.108242    -2.216749     5.032136
  H     2.159465    -0.448872     5.026372
  C    -5.086277     0.953552     0.684480
  H    -6.094445     1.262637     0.978420
  H    -5.190774     0.113988    -0.009953
  H    -4.575016     0.581601     1.580373
  C    -1.092191     5.423464     0.948808
  H    -1.750756     5.659067     1.791071
  H    -0.492283     6.315091     0.732810
  H    -1.724389     5.231340     0.074112
$END
$CHARGE
   1.09
  -0.42
  -0.57
   -0.4
  -0.46
  -0.12
  -0.03
   0.05
   0.07
   0.07
   0.17
  -0.14
   0.05
   0.08
   0.14
   0.02
  -0.24
   0.06
   0.09
   0.07
   0.15
  -0.23
   0.05
   0.07
   0.06
   0.03
   0.06
   0.11
   0.02
  -0.07
   0.04
   0.05
   0.33
  -0.09
  -0.02
   0.03
   0.02
   0.03
   0.27
  -0.07
  -0.03
  -0.39
    0.1
   0.09
   0.07
  -0.34
   0.09
   0.08
   0.09
  -0.26
   0.08
   0.07
   0.06
  -0.53
   0.13
   0.12
   0.11
$END
