$BOND
1 2 120 240 15
1 3 120 240 15
1 4 120 240 15
1 5 120 240 15
2 6 120 240 15
6 7 120 240 15
3 11 120 240 15
11 12 120 240 15
4 16 120 240 15
16 17 120 240 15
5 21 120 240 15
21 22 120 240 15
$END
$ALGO
ALGO=CONF CONNECT=READ library=nlopt optloc=nlopt_ln_sbplx 
MAXDISTDIff=0.1 EDIFF=0 DIST=1.4 NONHD=FALSE RMSD=0.05 MAXCLUST=300000 population=0
HCHRG=0.25 OCHRG=-0.5 KEL=1.0 KVW=1.0 KGD=0 TESTSIZE=1e-3
STRATEGY=1 CLUSTERPROPERTY=EIXX SORT=e
MK=0 ITER1=1000 KMEANS=-1  MAXCONF=150000000 COM=0
ITER2=10000 KMEANS1=33 MAXCONFPRINT=55000000
$END
$MOLECULE
 Ti    -0.026257     0.085944    -0.506969
  O    -0.570839    -1.038322     0.804812
  O    -1.417257     0.455516    -1.629756
  O     0.547646     1.598218     0.320361
  O     1.316027    -0.615100    -1.505939
  C    -0.651497    -1.022029     2.217114
  C     0.709874    -1.253594     2.857967
  H    -1.061129    -0.056164     2.555907
  H     1.388956    -0.458465     2.523673
  H     1.116210    -2.202766     2.485251
  C    -2.809741     0.606714    -1.458167
  C    -3.153243     1.669728    -0.420908
  H    -3.247294     0.884570    -2.430458
  H    -2.686122     2.616592    -0.720420
  H    -2.701303     1.383926     0.540032
  C     1.355394     2.733224     0.087815
  C     0.508770     3.941510    -0.292463
  H     2.084748     2.513829    -0.708622
  H    -0.054835     3.696082    -1.202532
  H     1.187679     4.766139    -0.549879
  C     2.250395    -1.674604    -1.459991
  C     3.648129    -1.165444    -1.128443
  H     2.254003    -2.170322    -2.442418
  H     3.937945    -0.423907    -1.883880
  H     4.345717    -2.008910    -1.224767
  H    -3.254939    -0.358179    -1.162082
  H     1.922918     2.947560     1.008335
  H    -1.355580    -1.808730     2.530032
  H     1.935387    -2.419308    -0.709343
  C    -4.661299     1.844290    -0.259648
  H    -5.126766     2.146871    -1.204482
  H    -5.135406     0.909778     0.060946
  H    -4.894457     2.609812     0.486367
  C    -0.442624     4.368562     0.821753
  H    -1.107121     3.545048     1.099347
  H     0.113684     4.667731     1.717740
  H    -1.062570     5.216267     0.512933
  C     0.623994    -1.271409     4.382478
  H    -0.041827    -2.067805     4.733778
  H     1.607679    -1.438393     4.830966
  H     0.239622    -0.320368     4.767815
  C     3.743624    -0.562522     0.269780
  H     3.056601     0.283429     0.379239
  H     3.483870    -1.304805     1.033778
  H     4.755518    -0.202203     0.480540
$END
$CHARGE
   1.05
  -0.44
  -0.52
  -0.38
  -0.43
  -0.11
   0.22
   0.08
   0.01
   0.03
   0.07
   0.11
   0.07
   0.07
   0.06
   0.01
  -0.01
   0.05
   0.04
   0.03
   0.05
   0.03
   0.05
   0.03
   0.01
   0.05
   0.08
   0.11
   0.04
  -0.62
   0.15
   0.15
   0.16
  -0.26
   0.03
   0.09
   0.07
  -0.57
   0.13
   0.14
   0.14
  -0.17
   0.03
   0.03
   0.05
$END
