$BOND
1 7 120 240 15
7 2 120 240 15
2 47 120 240 15
1 13 120 240 15
13 8 120 240 15
8 36 120 240 15
1 18 120 240 15
18 14 120 240 15
14 15 120 240 15
1 23 120 240 15
23 19 120 240 15
19 20 120 240 15
$END
$ALGO
ALGO=CONF CONNECT=READ library=nlopt optloc=nlopt_ln_sbplx 
MAXDISTDIff=0.1 EDIFF=0.1 DIST=1.4 NONHD=FALSE RMSD=0.05 MAXCLUST=300000 population=0
HCHRG=0.25 OCHRG=-0.5 KEL=1.0 KVW=1.0 KGD=0 TESTSIZE=1e-3
STRATEGY=1 CLUSTERPROPERTY=EIXX SORT=e
MK=0 ITER1=1000 KMEANS=-1  MAXCONF=150000000 COM=0
ITER2=10000 KMEANS1=33 MAXCONFPRINT=55000000
$END
$MOLECULE
 Ti     0.952335     0.724480     1.624760
  C    -0.049698     3.642984     1.715423
  C     0.399538     3.742028     3.174245
  H     0.203504     4.743960     3.571870
  H    -0.140784     3.009066     3.781753
  H     1.470015     3.533228     3.266084
  O     0.291249     2.355890     1.209093
  C    -0.283019    -0.640453     4.148758
  C    -0.416345    -2.001070     3.466220
  H    -1.008245    -2.693745     4.072314
  H    -0.907652    -1.882722     2.495313
  H     0.572836    -2.439668     3.294853
  O     0.437117     0.237266     3.290039
  C    -0.245322    -0.738917    -0.827056
  C    -1.743883    -0.990105    -0.577595
  H    -2.207491    -1.263785    -1.534986
  H    -1.822257    -1.871481     0.072497
  O     0.387019    -0.510909     0.428536
  C     3.936437     0.054092     1.673191
  C     4.867228     0.712692     2.706901
  H     5.823728     0.172127     2.709548
  H     5.076169     1.728428     2.347023
  O     2.768816     0.860317     1.574702
  C    -0.008722     0.470940    -1.732020
  H    -0.522687     0.344190    -2.691153
  H    -0.365884     1.389009    -1.256857
  H     1.063592     0.585831    -1.923988
  C     0.393664    -1.990969    -1.430560
  H     1.469906    -1.837917    -1.559511
  H     0.243152    -2.850390    -0.769203
  H    -0.045962    -2.218099    -2.407729
  C    -1.660929    -0.022288     4.391965
  H    -2.175617     0.119960     3.435802
  H    -2.282443    -0.667207     5.020816
  H    -1.560934     0.952725     4.880432
  C     0.541703    -0.726106     5.445794
  H     1.541453    -1.086856     5.170619
  H     0.673729     0.299016     5.815592
  C     4.604040     0.044781     0.296913
  H     3.915964    -0.371701    -0.446486
  H     4.862105     1.065132    -0.003992
  H     5.517245    -0.560506     0.306575
  C     3.545839    -1.369093     2.080488
  H     2.985959    -1.361192     3.020933
  H     2.911825    -1.818416     1.307595
  H     4.434533    -1.996840     2.210509
  C     0.646586     4.686802     0.824402
  H     0.267938     4.544666    -0.196358
  H     0.323549     5.686074     1.146883
  C    -1.568186     3.794439     1.614905
  H    -1.891724     3.685874     0.574710
  H    -2.063117     3.022228     2.213519
  H    -1.886543     4.776677     1.980496
  C     2.170710     4.598640     0.819053
  H     2.598899     4.885339     1.784832
  H     2.499200     3.578777     0.594068
  H     2.590917     5.268726     0.062160
  C     4.296509     0.780158     4.121282
  H     3.287038     1.204719     4.112492
  H     4.241714    -0.209294     4.586969
  H     4.924566     1.408178     4.761253
  C    -0.040844    -1.607344     6.548191
  H    -1.022301    -1.252973     6.879579
  H    -0.148149    -2.647826     6.225021
  H     0.618209    -1.603820     7.422180
  C    -2.497847     0.177824     0.050042
  H    -3.516540    -0.121218     0.317337
  H    -2.000325     0.524127     0.962244
  H    -2.570930     1.032153    -0.630071
$END
$CHARGE
   1.36
   0.88
  -0.68
   0.15
   0.17
   0.18
  -0.66
   0.92
  -0.72
   0.15
    0.2
   0.15
  -0.78
    0.8
  -0.06
   0.03
   0.02
  -0.67
   0.82
   0.01
    0.0
   0.02
  -0.66
  -0.61
   0.14
   0.15
   0.14
  -0.71
   0.18
   0.16
   0.15
  -0.58
   0.12
   0.13
   0.13
   0.02
   0.02
   0.02
  -0.76
   0.19
   0.17
   0.16
  -0.64
   0.16
   0.15
   0.14
  -0.09
   0.03
   0.02
  -0.78
   0.17
   0.19
   0.17
   -0.3
   0.07
   0.07
   0.09
  -0.35
   0.06
   0.08
    0.1
  -0.46
    0.1
   0.11
   0.12
  -0.34
   0.09
   0.09
   0.09
$END
